tsp_instances/TSP20/instance104.tsp
NODE_COORD_SECTION
0 104 31
1 48 53
2 199 22
3 159 169
4 87 50
5 93 124
6 20 37
7 133 130
8 149 199
9 27 150
10 20 139
11 73 13
12 158 187
13 51 161
14 74 123
15 51 16
16 31 56
17 89 179
18 53 107
19 97 172
