tsp_instances/TSP20/instance104.opt.tour
TOUR_SECTION
1
3
8
4
13
9
20
18
14
10
11
15
6
19
2
17
7
16
12
5
-1